unsat
(define-fun move ((currPoint Int) (o0 Int) (o1 Int)) Int (ite (= 0 (get-x currPoint)) 2 1))
139.59user 0.09system 2:19.68elapsed 99%CPU (0avgtext+0avgdata 77604maxresident)k
24inputs+8outputs (0major+25202minor)pagefaults 0swaps
